
===== New CPLEX run =====
Instance: /home/yorig/tuner/mpils-tests/instances/miplib/medium-1/neos-3555904-turama.mps
Config: /scratch/yorig/mpils-results-grid-seconds-10-no-mip-start/medium-1/4proc/seed-3/10_neos-3555904-turama_seed-3_20260503_044838/expansion/config_param_CPXPARAM_Preprocessing_BoundStrength_0_iter_3.prm
========================

Selected objective sense:  MINIMIZE
Selected objective  name:  Obj
Selected RHS        name:  RHS
Selected bound      name:  Bound
Version identifier: 22.1.2.0 | 2024-11-26 | 0edbb82fd
CPXPARAM_Threads                                 8
CPXPARAM_Parallel                                1
CPXPARAM_MIP_Cuts_Cliques                        2
CPXPARAM_Preprocessing_BoundStrength             0
CPXPARAM_MIP_Cuts_FlowCovers                     -1
CPXPARAM_MIP_Cuts_Implied                        -1
CPXPARAM_MIP_Cuts_GUBCovers                      1
CPXPARAM_MIP_Limits_GomoryCand                   10
CPXPARAM_MIP_Cuts_PathCut                        -1
CPXPARAM_MIP_Cuts_MIRCut                         1
CPXPARAM_MIP_Cuts_Disjunctive                    -1
CPXPARAM_Emphasis_MIP                            5
CPXPARAM_TimeLimit                               10
Tried aggregator 4 times.
MIP Presolve eliminated 87507 rows and 7482 columns.
MIP Presolve modified 92868 coefficients.
Aggregator did 11198 substitutions.
Reduced MIP has 47788 rows, 18781 columns, and 202291 nonzeros.
Reduced MIP has 18781 binaries, 0 generals, 0 SOSs, and 0 indicators.
Presolve time = 0.63 sec. (1120.86 ticks)
Probing fixed 1321 vars, tightened 0 bounds.
Probing time = 1.83 sec. (1084.24 ticks)
Tried aggregator 2 times.
Detecting symmetries...
MIP Presolve eliminated 5731 rows and 1447 columns.
MIP Presolve modified 2552 coefficients.
Aggregator did 180 substitutions.
Reduced MIP has 41876 rows, 17154 columns, and 175308 nonzeros.
Reduced MIP has 17154 binaries, 0 generals, 0 SOSs, and 0 indicators.
Presolve time = 0.34 sec. (668.00 ticks)
Probing fixed 1228 vars, tightened 0 bounds.
Probing time = 1.63 sec. (1173.88 ticks)
Clique table members: 91757.
MIP emphasis: heuristic.
MIP search method: dynamic search.
Parallel mode: deterministic, using up to 8 threads.
Root relaxation solution time = 3.56 sec. (2461.24 ticks)

        Nodes                                         Cuts/
   Node  Left     Objective  IInf  Best Integer    Best Bound    ItCnt     Gap

*     0+    0                          -33.2000   -34691.1000              --- 
      0     0      -40.9500   713      -33.2000      -40.9500    20258   23.34%
Advanced basis not built.

GUB cover cuts applied:  0
Clique cuts applied:  0
Mixed integer rounding cuts applied:  0

Root node processing (before b&c):
  Real time             =   10.02 sec. (8844.99 ticks)
Parallel b&c, 8 threads:
  Real time             =    0.00 sec. (0.00 ticks)
  Sync time (average)   =    0.00 sec.
  Wait time (average)   =    0.00 sec.
                          ------------
Total (root+branch&cut) =   10.02 sec. (8844.99 ticks)
Gap: 23.34%
Upper bound: -33.2
Lower bound: -40.95
End of CPLEX run. Time: 10.0287 seconds

===== New CPLEX run =====
Instance: /home/yorig/tuner/mpils-tests/instances/miplib/medium-1/neos-3555904-turama.mps
Config: /scratch/yorig/mpils-results-grid-seconds-10-no-mip-start/medium-1/4proc/seed-3/10_neos-3555904-turama_seed-3_20260503_044838/expansion/config_param_CPXPARAM_Preprocessing_BoundStrength_1_iter_3.prm
========================

Selected objective sense:  MINIMIZE
Selected objective  name:  Obj
Selected RHS        name:  RHS
Selected bound      name:  Bound
Version identifier: 22.1.2.0 | 2024-11-26 | 0edbb82fd
CPXPARAM_Threads                                 8
CPXPARAM_Parallel                                1
CPXPARAM_MIP_Cuts_Cliques                        2
CPXPARAM_Preprocessing_BoundStrength             1
CPXPARAM_MIP_Cuts_FlowCovers                     -1
CPXPARAM_MIP_Cuts_Implied                        -1
CPXPARAM_MIP_Cuts_GUBCovers                      1
CPXPARAM_MIP_Limits_GomoryCand                   10
CPXPARAM_MIP_Cuts_PathCut                        -1
CPXPARAM_MIP_Cuts_MIRCut                         1
CPXPARAM_MIP_Cuts_Disjunctive                    -1
CPXPARAM_Emphasis_MIP                            5
CPXPARAM_TimeLimit                               10
Tried aggregator 3 times.
MIP Presolve eliminated 88266 rows and 7696 columns.
MIP Presolve modified 93290 coefficients.
Aggregator did 11080 substitutions.
Reduced MIP has 47145 rows, 18685 columns, and 201232 nonzeros.
Reduced MIP has 18685 binaries, 0 generals, 0 SOSs, and 0 indicators.
Presolve time = 0.85 sec. (1435.97 ticks)
Found incumbent of value -33.200000 after 1.06 sec. (1819.77 ticks)
Probing fixed 2456 vars, tightened 0 bounds.
Probing changed sense of 6 constraints.
Probing time = 2.25 sec. (1226.29 ticks)
Tried aggregator 2 times.
MIP Presolve eliminated 9109 rows and 2642 columns.
MIP Presolve modified 5050 coefficients.
Aggregator did 410 substitutions.
Reduced MIP has 37623 rows, 15633 columns, and 145869 nonzeros.
Reduced MIP has 15633 binaries, 0 generals, 0 SOSs, and 0 indicators.
Presolve time = 0.32 sec. (568.73 ticks)
Probing fixed 494 vars, tightened 0 bounds.
Probing time = 1.35 sec. (600.78 ticks)
Tried aggregator 2 times.
Detecting symmetries...
MIP Presolve eliminated 3147 rows and 660 columns.
MIP Presolve modified 588 coefficients.
Aggregator did 651 substitutions.
Reduced MIP has 33825 rows, 14322 columns, and 131337 nonzeros.
Reduced MIP has 14322 binaries, 0 generals, 0 SOSs, and 0 indicators.
Presolve time = 0.29 sec. (517.68 ticks)
Probing time = 0.24 sec. (16.92 ticks)
Clique table members: 87904.
MIP emphasis: heuristic.
MIP search method: dynamic search.
Parallel mode: deterministic, using up to 8 threads.
Root relaxation solution time = 1.68 sec. (1414.56 ticks)

        Nodes                                         Cuts/
   Node  Left     Objective  IInf  Best Integer    Best Bound    ItCnt     Gap

*     0+    0                          -33.2000   -27044.9000              --- 
      0     0      -40.9500    62      -33.2000      -40.9500    14915   23.34%
*     0+   -1                          -34.7000      -40.9500            18.01%
      0     0  -1.00000e+75     0      -34.7000      -40.9500    14915   18.01%
Advanced basis not built.

GUB cover cuts applied:  0
Clique cuts applied:  0
Mixed integer rounding cuts applied:  0

Root node processing (before b&c):
  Real time             =   10.01 sec. (10374.23 ticks)
Parallel b&c, 8 threads:
  Real time             =    0.00 sec. (0.00 ticks)
  Sync time (average)   =    0.00 sec.
  Wait time (average)   =    0.00 sec.
                          ------------
Total (root+branch&cut) =   10.01 sec. (10374.23 ticks)
Gap: 18.01%
Upper bound: -34.7
Lower bound: -40.95
End of CPLEX run. Time: 10.0185 seconds

===== New CPLEX run =====
Instance: /home/yorig/tuner/mpils-tests/instances/miplib/medium-1/neos-3555904-turama.mps
Config: /scratch/yorig/mpils-results-grid-seconds-10-no-mip-start/medium-1/4proc/seed-3/10_neos-3555904-turama_seed-3_20260503_044838/expansion/config_param_CPXPARAM_Preprocessing_CoeffReduce_0_iter_3.prm
========================

Selected objective sense:  MINIMIZE
Selected objective  name:  Obj
Selected RHS        name:  RHS
Selected bound      name:  Bound
Version identifier: 22.1.2.0 | 2024-11-26 | 0edbb82fd
CPXPARAM_Threads                                 8
CPXPARAM_Parallel                                1
CPXPARAM_MIP_Cuts_Cliques                        2
CPXPARAM_Preprocessing_CoeffReduce               0
CPXPARAM_MIP_Cuts_FlowCovers                     -1
CPXPARAM_MIP_Cuts_Implied                        -1
CPXPARAM_MIP_Cuts_GUBCovers                      1
CPXPARAM_MIP_Limits_GomoryCand                   10
CPXPARAM_MIP_Cuts_PathCut                        -1
CPXPARAM_MIP_Cuts_MIRCut                         1
CPXPARAM_MIP_Cuts_Disjunctive                    -1
CPXPARAM_Emphasis_MIP                            5
CPXPARAM_TimeLimit                               10
Tried aggregator 3 times.
MIP Presolve eliminated 88266 rows and 7696 columns.
MIP Presolve modified 93290 coefficients.
Aggregator did 11080 substitutions.
Reduced MIP has 47145 rows, 18685 columns, and 201232 nonzeros.
Reduced MIP has 18685 binaries, 0 generals, 0 SOSs, and 0 indicators.
Presolve time = 0.74 sec. (1332.34 ticks)
Found incumbent of value -33.200000 after 0.96 sec. (1716.14 ticks)
Probing fixed 2456 vars, tightened 0 bounds.
Probing changed sense of 6 constraints.
Probing time = 2.25 sec. (1226.29 ticks)
Tried aggregator 2 times.
MIP Presolve eliminated 9109 rows and 2642 columns.
MIP Presolve modified 5050 coefficients.
Aggregator did 410 substitutions.
Reduced MIP has 37623 rows, 15633 columns, and 145869 nonzeros.
Reduced MIP has 15633 binaries, 0 generals, 0 SOSs, and 0 indicators.
Presolve time = 0.27 sec. (530.75 ticks)
Probing fixed 494 vars, tightened 0 bounds.
Probing time = 1.08 sec. (600.78 ticks)
Tried aggregator 2 times.
Detecting symmetries...
MIP Presolve eliminated 3147 rows and 660 columns.
MIP Presolve modified 588 coefficients.
Aggregator did 651 substitutions.
Reduced MIP has 33825 rows, 14322 columns, and 131337 nonzeros.
Reduced MIP has 14322 binaries, 0 generals, 0 SOSs, and 0 indicators.
Presolve time = 0.24 sec. (485.17 ticks)
Probing time = 0.06 sec. (16.92 ticks)
Clique table members: 87904.
MIP emphasis: heuristic.
MIP search method: dynamic search.
Parallel mode: deterministic, using up to 8 threads.
Root relaxation solution time = 1.61 sec. (1414.56 ticks)

        Nodes                                         Cuts/
   Node  Left     Objective  IInf  Best Integer    Best Bound    ItCnt     Gap

*     0+    0                          -33.2000   -27044.9000              --- 
      0     0      -40.9500    62      -33.2000      -40.9500    14915   23.34%
*     0+   -1                          -34.7000      -40.9500            18.01%
      0     0  -1.00000e+75     0      -34.7000      -40.9500    14915   18.01%
Advanced basis not built.

GUB cover cuts applied:  0
Clique cuts applied:  0
Mixed integer rounding cuts applied:  0

Root node processing (before b&c):
  Real time             =   10.01 sec. (11550.10 ticks)
Parallel b&c, 8 threads:
  Real time             =    0.00 sec. (0.00 ticks)
  Sync time (average)   =    0.00 sec.
  Wait time (average)   =    0.00 sec.
                          ------------
Total (root+branch&cut) =   10.01 sec. (11550.10 ticks)
Gap: 18.01%
Upper bound: -34.7
Lower bound: -40.95
End of CPLEX run. Time: 10.0182 seconds

===== New CPLEX run =====
Instance: /home/yorig/tuner/mpils-tests/instances/miplib/medium-1/neos-3555904-turama.mps
Config: /scratch/yorig/mpils-results-grid-seconds-10-no-mip-start/medium-1/4proc/seed-3/10_neos-3555904-turama_seed-3_20260503_044838/expansion/config_param_CPXPARAM_Preprocessing_CoeffReduce_1_iter_3.prm
========================

Selected objective sense:  MINIMIZE
Selected objective  name:  Obj
Selected RHS        name:  RHS
Selected bound      name:  Bound
Version identifier: 22.1.2.0 | 2024-11-26 | 0edbb82fd
CPXPARAM_Threads                                 8
CPXPARAM_Parallel                                1
CPXPARAM_MIP_Cuts_Cliques                        2
CPXPARAM_Preprocessing_CoeffReduce               1
CPXPARAM_MIP_Cuts_FlowCovers                     -1
CPXPARAM_MIP_Cuts_Implied                        -1
CPXPARAM_MIP_Cuts_GUBCovers                      1
CPXPARAM_MIP_Limits_GomoryCand                   10
CPXPARAM_MIP_Cuts_PathCut                        -1
CPXPARAM_MIP_Cuts_MIRCut                         1
CPXPARAM_MIP_Cuts_Disjunctive                    -1
CPXPARAM_Emphasis_MIP                            5
CPXPARAM_TimeLimit                               10
Tried aggregator 3 times.
MIP Presolve eliminated 88266 rows and 7696 columns.
MIP Presolve modified 93290 coefficients.
Aggregator did 11080 substitutions.
Reduced MIP has 47145 rows, 18685 columns, and 201232 nonzeros.
Reduced MIP has 18685 binaries, 0 generals, 0 SOSs, and 0 indicators.
Presolve time = 0.85 sec. (1435.97 ticks)
Found incumbent of value -33.200000 after 1.06 sec. (1819.77 ticks)
Probing fixed 2456 vars, tightened 0 bounds.
Probing changed sense of 6 constraints.
Probing time = 2.28 sec. (1226.29 ticks)
Tried aggregator 2 times.
MIP Presolve eliminated 9109 rows and 2642 columns.
MIP Presolve modified 5050 coefficients.
Aggregator did 410 substitutions.
Reduced MIP has 37623 rows, 15633 columns, and 145869 nonzeros.
Reduced MIP has 15633 binaries, 0 generals, 0 SOSs, and 0 indicators.
Presolve time = 0.32 sec. (568.73 ticks)
Probing fixed 494 vars, tightened 0 bounds.
Probing time = 1.13 sec. (600.78 ticks)
Tried aggregator 2 times.
Detecting symmetries...
MIP Presolve eliminated 3147 rows and 660 columns.
MIP Presolve modified 588 coefficients.
Aggregator did 651 substitutions.
Reduced MIP has 33825 rows, 14322 columns, and 131337 nonzeros.
Reduced MIP has 14322 binaries, 0 generals, 0 SOSs, and 0 indicators.
Presolve time = 0.29 sec. (517.68 ticks)
Probing time = 0.05 sec. (16.92 ticks)
Clique table members: 87904.
MIP emphasis: heuristic.
MIP search method: dynamic search.
Parallel mode: deterministic, using up to 8 threads.
Root relaxation solution time = 1.76 sec. (1414.56 ticks)

        Nodes                                         Cuts/
   Node  Left     Objective  IInf  Best Integer    Best Bound    ItCnt     Gap

*     0+    0                          -33.2000   -27044.9000              --- 
      0     0      -40.9500    62      -33.2000      -40.9500    14915   23.34%
*     0+   -1                          -34.7000      -40.9500            18.01%
      0     0  -1.00000e+75     0      -34.7000      -40.9500    14915   18.01%
Advanced basis not built.

GUB cover cuts applied:  0
Clique cuts applied:  0
Mixed integer rounding cuts applied:  0

Root node processing (before b&c):
  Real time             =   10.01 sec. (10899.51 ticks)
Parallel b&c, 8 threads:
  Real time             =    0.00 sec. (0.00 ticks)
  Sync time (average)   =    0.00 sec.
  Wait time (average)   =    0.00 sec.
                          ------------
Total (root+branch&cut) =   10.01 sec. (10899.51 ticks)
Gap: 18.01%
Upper bound: -34.7
Lower bound: -40.95
End of CPLEX run. Time: 10.0182 seconds

===== New CPLEX run =====
Instance: /home/yorig/tuner/mpils-tests/instances/miplib/medium-1/neos-3555904-turama.mps
Config: /scratch/yorig/mpils-results-grid-seconds-10-no-mip-start/medium-1/4proc/seed-3/10_neos-3555904-turama_seed-3_20260503_044838/expansion/config_param_CPXPARAM_Preprocessing_CoeffReduce_2_iter_3.prm
========================

Selected objective sense:  MINIMIZE
Selected objective  name:  Obj
Selected RHS        name:  RHS
Selected bound      name:  Bound
Version identifier: 22.1.2.0 | 2024-11-26 | 0edbb82fd
CPXPARAM_Threads                                 8
CPXPARAM_Parallel                                1
CPXPARAM_MIP_Cuts_Cliques                        2
CPXPARAM_Preprocessing_CoeffReduce               2
CPXPARAM_MIP_Cuts_FlowCovers                     -1
CPXPARAM_MIP_Cuts_Implied                        -1
CPXPARAM_MIP_Cuts_GUBCovers                      1
CPXPARAM_MIP_Limits_GomoryCand                   10
CPXPARAM_MIP_Cuts_PathCut                        -1
CPXPARAM_MIP_Cuts_MIRCut                         1
CPXPARAM_MIP_Cuts_Disjunctive                    -1
CPXPARAM_Emphasis_MIP                            5
CPXPARAM_TimeLimit                               10
Tried aggregator 3 times.
MIP Presolve eliminated 88266 rows and 7696 columns.
MIP Presolve modified 93290 coefficients.
Aggregator did 11080 substitutions.
Reduced MIP has 47145 rows, 18685 columns, and 201232 nonzeros.
Reduced MIP has 18685 binaries, 0 generals, 0 SOSs, and 0 indicators.
Presolve time = 0.85 sec. (1435.97 ticks)
Found incumbent of value -33.200000 after 1.07 sec. (1819.77 ticks)
Probing fixed 2456 vars, tightened 0 bounds.
Probing changed sense of 6 constraints.
Probing time = 2.27 sec. (1226.29 ticks)
Tried aggregator 2 times.
MIP Presolve eliminated 9109 rows and 2642 columns.
MIP Presolve modified 5050 coefficients.
Aggregator did 410 substitutions.
Reduced MIP has 37623 rows, 15633 columns, and 145869 nonzeros.
Reduced MIP has 15633 binaries, 0 generals, 0 SOSs, and 0 indicators.
Presolve time = 0.32 sec. (568.73 ticks)
Probing fixed 494 vars, tightened 0 bounds.
Probing time = 1.43 sec. (600.78 ticks)
Tried aggregator 2 times.
Detecting symmetries...
MIP Presolve eliminated 3147 rows and 660 columns.
MIP Presolve modified 588 coefficients.
Aggregator did 651 substitutions.
Reduced MIP has 33825 rows, 14322 columns, and 131337 nonzeros.
Reduced MIP has 14322 binaries, 0 generals, 0 SOSs, and 0 indicators.
Presolve time = 0.29 sec. (517.68 ticks)
Probing time = 0.24 sec. (16.92 ticks)
Clique table members: 87904.
MIP emphasis: heuristic.
MIP search method: dynamic search.
Parallel mode: deterministic, using up to 8 threads.
Root relaxation solution time = 2.96 sec. (1414.56 ticks)

        Nodes                                         Cuts/
   Node  Left     Objective  IInf  Best Integer    Best Bound    ItCnt     Gap

*     0+    0                          -33.2000   -27044.9000              --- 
      0     0      -40.9500    62      -33.2000      -40.9500    14915   23.34%
*     0+   -1                          -34.7000      -40.9500            18.01%
      0     0  -1.00000e+75     0      -34.7000      -40.9500    14915   18.01%
Advanced basis not built.

GUB cover cuts applied:  0
Clique cuts applied:  0
Mixed integer rounding cuts applied:  0

Root node processing (before b&c):
  Real time             =   10.01 sec. (7962.14 ticks)
Parallel b&c, 8 threads:
  Real time             =    0.00 sec. (0.00 ticks)
  Sync time (average)   =    0.00 sec.
  Wait time (average)   =    0.00 sec.
                          ------------
Total (root+branch&cut) =   10.01 sec. (7962.14 ticks)
Gap: 18.01%
Upper bound: -34.7
Lower bound: -40.95
End of CPLEX run. Time: 10.0184 seconds

===== New CPLEX run =====
Instance: /home/yorig/tuner/mpils-tests/instances/miplib/medium-1/neos-3555904-turama.mps
Config: /scratch/yorig/mpils-results-grid-seconds-10-no-mip-start/medium-1/4proc/seed-3/10_neos-3555904-turama_seed-3_20260503_044838/expansion/config_param_CPXPARAM_Preprocessing_CoeffReduce_3_iter_3.prm
========================

Selected objective sense:  MINIMIZE
Selected objective  name:  Obj
Selected RHS        name:  RHS
Selected bound      name:  Bound
Version identifier: 22.1.2.0 | 2024-11-26 | 0edbb82fd
CPXPARAM_Threads                                 8
CPXPARAM_Parallel                                1
CPXPARAM_MIP_Cuts_Cliques                        2
CPXPARAM_Preprocessing_CoeffReduce               3
CPXPARAM_MIP_Cuts_FlowCovers                     -1
CPXPARAM_MIP_Cuts_Implied                        -1
CPXPARAM_MIP_Cuts_GUBCovers                      1
CPXPARAM_MIP_Limits_GomoryCand                   10
CPXPARAM_MIP_Cuts_PathCut                        -1
CPXPARAM_MIP_Cuts_MIRCut                         1
CPXPARAM_MIP_Cuts_Disjunctive                    -1
CPXPARAM_Emphasis_MIP                            5
CPXPARAM_TimeLimit                               10
Tried aggregator 3 times.
MIP Presolve eliminated 88266 rows and 7696 columns.
MIP Presolve modified 93290 coefficients.
Aggregator did 11080 substitutions.
Reduced MIP has 47145 rows, 18685 columns, and 201232 nonzeros.
Reduced MIP has 18685 binaries, 0 generals, 0 SOSs, and 0 indicators.
Presolve time = 0.87 sec. (1457.57 ticks)
Found incumbent of value -33.200000 after 1.09 sec. (1841.36 ticks)
Probing fixed 2456 vars, tightened 0 bounds.
Probing changed sense of 6 constraints.
Probing time = 2.23 sec. (1226.29 ticks)
Tried aggregator 2 times.
MIP Presolve eliminated 9109 rows and 2642 columns.
MIP Presolve modified 5050 coefficients.
Aggregator did 410 substitutions.
Reduced MIP has 37623 rows, 15633 columns, and 145869 nonzeros.
Reduced MIP has 15633 binaries, 0 generals, 0 SOSs, and 0 indicators.
Presolve time = 0.33 sec. (577.69 ticks)
Probing fixed 494 vars, tightened 0 bounds.
Probing time = 1.10 sec. (600.78 ticks)
Tried aggregator 2 times.
Detecting symmetries...
MIP Presolve eliminated 3147 rows and 660 columns.
MIP Presolve modified 588 coefficients.
Aggregator did 651 substitutions.
Reduced MIP has 33825 rows, 14322 columns, and 131337 nonzeros.
Reduced MIP has 14322 binaries, 0 generals, 0 SOSs, and 0 indicators.
Presolve time = 0.29 sec. (525.33 ticks)
Probing time = 0.08 sec. (16.92 ticks)
Clique table members: 87904.
MIP emphasis: heuristic.
MIP search method: dynamic search.
Parallel mode: deterministic, using up to 8 threads.
Root relaxation solution time = 1.73 sec. (1414.56 ticks)

        Nodes                                         Cuts/
   Node  Left     Objective  IInf  Best Integer    Best Bound    ItCnt     Gap

*     0+    0                          -33.2000   -27044.9000              --- 
      0     0      -40.9500    62      -33.2000      -40.9500    14915   23.34%
*     0+   -1                          -34.7000      -40.9500            18.01%
      0     0  -1.00000e+75     0      -34.7000      -40.9500    14915   18.01%
Advanced basis not built.

GUB cover cuts applied:  0
Clique cuts applied:  0
Mixed integer rounding cuts applied:  0

Root node processing (before b&c):
  Real time             =   10.01 sec. (11061.46 ticks)
Parallel b&c, 8 threads:
  Real time             =    0.00 sec. (0.00 ticks)
  Sync time (average)   =    0.00 sec.
  Wait time (average)   =    0.00 sec.
                          ------------
Total (root+branch&cut) =   10.01 sec. (11061.46 ticks)
Gap: 18.01%
Upper bound: -34.7
Lower bound: -40.95
End of CPLEX run. Time: 10.0185 seconds

===== New CPLEX run =====
Instance: /home/yorig/tuner/mpils-tests/instances/miplib/medium-1/neos-3555904-turama.mps
Config: /scratch/yorig/mpils-results-grid-seconds-10-no-mip-start/medium-1/4proc/seed-3/10_neos-3555904-turama_seed-3_20260503_044838/expansion/config_param_CPXPARAM_Simplex_Crash_-1_iter_3.prm
========================

Selected objective sense:  MINIMIZE
Selected objective  name:  Obj
Selected RHS        name:  RHS
Selected bound      name:  Bound
Version identifier: 22.1.2.0 | 2024-11-26 | 0edbb82fd
CPXPARAM_Simplex_Crash                           -1
CPXPARAM_Threads                                 8
CPXPARAM_Parallel                                1
CPXPARAM_MIP_Cuts_Cliques                        2
CPXPARAM_MIP_Cuts_FlowCovers                     -1
CPXPARAM_MIP_Cuts_Implied                        -1
CPXPARAM_MIP_Cuts_GUBCovers                      1
CPXPARAM_MIP_Limits_GomoryCand                   10
CPXPARAM_MIP_Cuts_PathCut                        -1
CPXPARAM_MIP_Cuts_MIRCut                         1
CPXPARAM_MIP_Cuts_Disjunctive                    -1
CPXPARAM_Emphasis_MIP                            5
CPXPARAM_TimeLimit                               10
Tried aggregator 3 times.
MIP Presolve eliminated 88266 rows and 7696 columns.
MIP Presolve modified 93290 coefficients.
Aggregator did 11080 substitutions.
Reduced MIP has 47145 rows, 18685 columns, and 201232 nonzeros.
Reduced MIP has 18685 binaries, 0 generals, 0 SOSs, and 0 indicators.
Presolve time = 0.85 sec. (1435.97 ticks)
Found incumbent of value -33.200000 after 1.06 sec. (1819.77 ticks)
Probing fixed 2456 vars, tightened 0 bounds.
Probing changed sense of 6 constraints.
Probing time = 2.21 sec. (1226.29 ticks)
Tried aggregator 2 times.
MIP Presolve eliminated 9109 rows and 2642 columns.
MIP Presolve modified 5050 coefficients.
Aggregator did 410 substitutions.
Reduced MIP has 37623 rows, 15633 columns, and 145869 nonzeros.
Reduced MIP has 15633 binaries, 0 generals, 0 SOSs, and 0 indicators.
Presolve time = 0.32 sec. (568.73 ticks)
Probing fixed 494 vars, tightened 0 bounds.
Probing time = 1.12 sec. (600.78 ticks)
Tried aggregator 2 times.
Detecting symmetries...
MIP Presolve eliminated 3147 rows and 660 columns.
MIP Presolve modified 588 coefficients.
Aggregator did 651 substitutions.
Reduced MIP has 33825 rows, 14322 columns, and 131337 nonzeros.
Reduced MIP has 14322 binaries, 0 generals, 0 SOSs, and 0 indicators.
Presolve time = 0.29 sec. (517.68 ticks)
Probing time = 0.04 sec. (16.92 ticks)
Clique table members: 87904.
MIP emphasis: heuristic.
MIP search method: dynamic search.
Parallel mode: deterministic, using up to 8 threads.
Root relaxation solution time = 2.18 sec. (1637.18 ticks)

        Nodes                                         Cuts/
   Node  Left     Objective  IInf  Best Integer    Best Bound    ItCnt     Gap

*     0+    0                          -33.2000   -27044.9000              --- 
      0     0      -40.9500   659      -33.2000      -40.9500    15144   23.34%
*     0+   -1                          -34.7000      -40.9500            18.01%
      0     0  -1.00000e+75     0      -34.7000      -40.9500    15144   18.01%
Advanced basis not built.

GUB cover cuts applied:  0
Clique cuts applied:  0
Mixed integer rounding cuts applied:  0

Root node processing (before b&c):
  Real time             =   10.01 sec. (10080.50 ticks)
Parallel b&c, 8 threads:
  Real time             =    0.00 sec. (0.00 ticks)
  Sync time (average)   =    0.00 sec.
  Wait time (average)   =    0.00 sec.
                          ------------
Total (root+branch&cut) =   10.01 sec. (10080.50 ticks)
Gap: 18.01%
Upper bound: -34.7
Lower bound: -40.95
End of CPLEX run. Time: 10.0181 seconds

===== New CPLEX run =====
Instance: /home/yorig/tuner/mpils-tests/instances/miplib/medium-1/neos-3555904-turama.mps
Config: /scratch/yorig/mpils-results-grid-seconds-10-no-mip-start/medium-1/4proc/seed-3/10_neos-3555904-turama_seed-3_20260503_044838/expansion/config_param_CPXPARAM_Simplex_Crash_0_iter_3.prm
========================

Selected objective sense:  MINIMIZE
Selected objective  name:  Obj
Selected RHS        name:  RHS
Selected bound      name:  Bound
Version identifier: 22.1.2.0 | 2024-11-26 | 0edbb82fd
CPXPARAM_Simplex_Crash                           0
CPXPARAM_Threads                                 8
CPXPARAM_Parallel                                1
CPXPARAM_MIP_Cuts_Cliques                        2
CPXPARAM_MIP_Cuts_FlowCovers                     -1
CPXPARAM_MIP_Cuts_Implied                        -1
CPXPARAM_MIP_Cuts_GUBCovers                      1
CPXPARAM_MIP_Limits_GomoryCand                   10
CPXPARAM_MIP_Cuts_PathCut                        -1
CPXPARAM_MIP_Cuts_MIRCut                         1
CPXPARAM_MIP_Cuts_Disjunctive                    -1
CPXPARAM_Emphasis_MIP                            5
CPXPARAM_TimeLimit                               10
Tried aggregator 3 times.
MIP Presolve eliminated 88266 rows and 7696 columns.
MIP Presolve modified 93290 coefficients.
Aggregator did 11080 substitutions.
Reduced MIP has 47145 rows, 18685 columns, and 201232 nonzeros.
Reduced MIP has 18685 binaries, 0 generals, 0 SOSs, and 0 indicators.
Presolve time = 0.85 sec. (1435.97 ticks)
Found incumbent of value -33.200000 after 1.07 sec. (1819.77 ticks)
Probing fixed 2456 vars, tightened 0 bounds.
Probing changed sense of 6 constraints.
Probing time = 2.29 sec. (1226.29 ticks)
Tried aggregator 2 times.
MIP Presolve eliminated 9109 rows and 2642 columns.
MIP Presolve modified 5050 coefficients.
Aggregator did 410 substitutions.
Reduced MIP has 37623 rows, 15633 columns, and 145869 nonzeros.
Reduced MIP has 15633 binaries, 0 generals, 0 SOSs, and 0 indicators.
Presolve time = 0.32 sec. (568.73 ticks)
Probing fixed 494 vars, tightened 0 bounds.
Probing time = 1.06 sec. (600.78 ticks)
Tried aggregator 2 times.
Detecting symmetries...
MIP Presolve eliminated 3147 rows and 660 columns.
MIP Presolve modified 588 coefficients.
Aggregator did 651 substitutions.
Reduced MIP has 33825 rows, 14322 columns, and 131337 nonzeros.
Reduced MIP has 14322 binaries, 0 generals, 0 SOSs, and 0 indicators.
Presolve time = 0.29 sec. (517.68 ticks)
Probing time = 0.22 sec. (16.92 ticks)
Clique table members: 87904.
MIP emphasis: heuristic.
MIP search method: dynamic search.
Parallel mode: deterministic, using up to 8 threads.
Root relaxation solution time = 1.69 sec. (1389.48 ticks)

        Nodes                                         Cuts/
   Node  Left     Objective  IInf  Best Integer    Best Bound    ItCnt     Gap

*     0+    0                          -33.2000   -27044.9000              --- 
      0     0      -40.9500   414      -33.2000      -40.9500    15318   23.34%
*     0+   -1                          -34.7000      -40.9500            18.01%
      0     0  -1.00000e+75     0      -34.7000      -40.9500    15318   18.01%
Advanced basis not built.

GUB cover cuts applied:  0
Clique cuts applied:  0
Mixed integer rounding cuts applied:  0

Root node processing (before b&c):
  Real time             =   10.01 sec. (10029.89 ticks)
Parallel b&c, 8 threads:
  Real time             =    0.00 sec. (0.00 ticks)
  Sync time (average)   =    0.00 sec.
  Wait time (average)   =    0.00 sec.
                          ------------
Total (root+branch&cut) =   10.01 sec. (10029.89 ticks)
Gap: 18.01%
Upper bound: -34.7
Lower bound: -40.95
End of CPLEX run. Time: 10.018 seconds
